GLKH-1.1/TMP/mtspf.pid10622.atsp
NAME : mtspf.pid10622.gtsp
TYPE : ATSP
DIMENSION : 45
EDGE_WEIGHT_TYPE : EXPLICIT
EDGE_WEIGHT_FORMAT : FULL_MATRIX
EDGE_WEIGHT_SECTION
999999 5368709 5368709 5368709 5368709 5368749 5368748 5368749 5368750 5368725 5368726 5368727 5368726 5368741 5368742 5368741 5368740 5368734 5368733 5368732 5368733 5368757 5368756 5368755 5368756 5368737 5368738 5368739 5368738 5368742 5368743 5368744 5368743 5368747 5368748 5368749 5368748 5368757 5368758 5368759 5368758 5368742 5368741 5368740 5368741 
5368709 999999 5368709 5368709 5368709 5368747 5368746 5368747 5368748 5368723 5368724 5368725 5368724 5368739 5368740 5368739 5368738 5368732 5368731 5368730 5368731 5368755 5368754 5368753 5368754 5368737 5368738 5368739 5368738 5368740 5368741 5368742 5368741 5368745 5368746 5368747 5368746 5368755 5368756 5368757 5368756 5368740 5368739 5368738 5368739 
5368709 5368709 999999 5368709 5368709 5368730 5368731 5368732 5368731 5368770 5368771 5368770 5368771 5368752 5368751 5368750 5368751 5368757 5368756 5368755 5368756 5368730 5368729 5368728 5368729 5368760 5368761 5368760 5368759 5368739 5368740 5368739 5368738 5368732 5368733 5368732 5368731 5368738 5368739 5368738 5368737 5368747 5368748 5368747 5368746 
5368709 5368709 5368709 999999 5368709 5368732 5368733 5368732 5368731 5368756 5368757 5368756 5368757 5368746 5368747 5368746 5368745 5368741 5368740 5368739 5368740 5368744 5368745 5368744 5368743 5368748 5368749 5368748 5368747 5368725 5368724 5368723 5368724 5368718 5368719 5368720 5368719 5368754 5368755 5368756 5368755 5368731 5368732 5368731 5368730 
5368709 5368709 5368709 5368709 999999 5368735 5368734 5368735 5368736 5368731 5368730 5368729 5368730 5368721 5368720 5368719 5368720 5368750 5368749 5368748 5368749 5368743 5368742 5368741 5368742 5368717 5368718 5368717 5368716 5368750 5368749 5368748 5368749 5368747 5368746 5368747 5368748 5368733 5368734 5368735 5368734 5368756 5368755 5368754 5368755 
5368709 5368709 5368709 5368709 5368709 999999 0 10737418 10737418 5368754 5368753 5368752 5368753 5368732 5368733 5368732 5368731 5368741 5368740 5368739 5368740 5368728 5368727 5368726 5368727 5368740 5368741 5368740 5368739 5368731 5368730 5368729 5368730 5368724 5368723 5368724 5368725 5368734 5368735 5368736 5368735 5368737 5368738 5368737 5368736 
5368709 5368709 5368709 5368709 5368709 10737418 999999 0 10737418 5368753 5368752 5368751 5368752 5368731 5368732 5368731 5368730 5368742 5368741 5368740 5368741 5368727 5368726 5368725 5368726 5368739 5368740 5368739 5368738 5368732 5368731 5368730 5368731 5368725 5368724 5368725 5368726 5368733 5368734 5368735 5368734 5368738 5368739 5368738 5368737 
5368709 5368709 5368709 5368709 5368709 10737418 10737418 999999 0 5368752 5368751 5368750 5368751 5368730 5368731 5368730 5368729 5368743 5368742 5368741 5368742 5368726 5368725 5368724 5368725 5368738 5368739 5368738 5368737 5368733 5368732 5368731 5368732 5368726 5368725 5368726 5368727 5368732 5368733 5368734 5368733 5368739 5368740 5368739 5368738 
5368709 5368709 5368709 5368709 5368709 0 10737418 10737418 999999 5368753 5368752 5368751 5368752 5368731 5368732 5368731 5368730 5368742 5368741 5368740 5368741 5368727 5368726 5368725 5368726 5368739 5368740 5368739 5368738 5368732 5368731 5368730 5368731 5368725 5368724 5368725 5368726 5368733 5368734 5368735 5368734 5368738 5368739 5368738 5368737 
5368709 5368709 5368709 5368709 5368709 5368752 5368751 5368752 5368753 999999 0 10737418 10737418 5368736 5368737 5368736 5368735 5368739 5368738 5368737 5368738 5368760 5368759 5368758 5368759 5368728 5368729 5368728 5368727 5368747 5368748 5368747 5368748 5368750 5368751 5368752 5368751 5368752 5368753 5368754 5368753 5368747 5368746 5368745 5368746 
5368709 5368709 5368709 5368709 5368709 5368753 5368752 5368753 5368754 10737418 999999 0 10737418 5368737 5368738 5368737 5368736 5368738 5368737 5368736 5368737 5368761 5368760 5368759 5368760 5368729 5368730 5368729 5368728 5368746 5368747 5368748 5368747 5368751 5368752 5368753 5368752 5368753 5368754 5368755 5368754 5368746 5368745 5368744 5368745 
5368709 5368709 5368709 5368709 5368709 5368752 5368751 5368752 5368753 10737418 10737418 999999 0 5368736 5368737 5368736 5368735 5368739 5368738 5368737 5368738 5368760 5368759 5368758 5368759 5368728 5368729 5368728 5368727 5368747 5368748 5368747 5368748 5368750 5368751 5368752 5368751 5368752 5368753 5368754 5368753 5368747 5368746 5368745 5368746 
5368709 5368709 5368709 5368709 5368709 5368751 5368750 5368751 5368752 0 10737418 10737418 999999 5368735 5368736 5368735 5368734 5368740 5368739 5368738 5368739 5368759 5368758 5368757 5368758 5368727 5368728 5368727 5368726 5368746 5368747 5368746 5368747 5368749 5368750 5368751 5368750 5368751 5368752 5368753 5368752 5368748 5368747 5368746 5368747 
5368709 5368709 5368709 5368709 5368709 5368730 5368729 5368730 5368731 5368736 5368735 5368734 5368735 999999 0 10737418 10737418 5368743 5368742 5368741 5368742 5368738 5368737 5368736 5368737 5368720 5368721 5368720 5368719 5368743 5368742 5368741 5368742 5368738 5368737 5368738 5368739 5368732 5368733 5368734 5368733 5368749 5368748 5368747 5368748 
5368709 5368709 5368709 5368709 5368709 5368731 5368730 5368731 5368732 5368737 5368736 5368735 5368736 10737418 999999 0 10737418 5368744 5368743 5368742 5368743 5368739 5368738 5368737 5368738 5368721 5368722 5368721 5368720 5368744 5368743 5368742 5368743 5368739 5368738 5368739 5368740 5368733 5368734 5368735 5368734 5368750 5368749 5368748 5368749 
5368709 5368709 5368709 5368709 5368709 5368732 5368731 5368732 5368733 5368738 5368737 5368736 5368737 10737418 10737418 999999 0 5368745 5368744 5368743 5368744 5368740 5368739 5368738 5368739 5368722 5368723 5368722 5368721 5368745 5368744 5368743 5368744 5368740 5368739 5368740 5368741 5368732 5368733 5368734 5368733 5368751 5368750 5368749 5368750 
5368709 5368709 5368709 5368709 5368709 5368731 5368730 5368731 5368732 5368737 5368736 5368735 5368736 0 10737418 10737418 999999 5368744 5368743 5368742 5368743 5368739 5368738 5368737 5368738 5368721 5368722 5368721 5368720 5368744 5368743 5368742 5368743 5368739 5368738 5368739 5368740 5368731 5368732 5368733 5368732 5368750 5368749 5368748 5368749 
5368709 5368709 5368709 5368709 5368709 5368741 5368742 5368741 5368740 5368737 5368738 5368739 5368738 5368743 5368744 5368743 5368742 999999 0 10737418 10737418 5368751 5368750 5368749 5368750 5368745 5368746 5368745 5368744 5368726 5368727 5368728 5368727 5368733 5368734 5368735 5368734 5368755 5368756 5368757 5368756 5368720 5368721 5368722 5368721 
5368709 5368709 5368709 5368709 5368709 5368742 5368743 5368742 5368741 5368738 5368739 5368740 5368739 5368744 5368745 5368744 5368743 10737418 999999 0 10737418 5368752 5368751 5368750 5368751 5368746 5368747 5368746 5368745 5368727 5368728 5368729 5368728 5368734 5368735 5368736 5368735 5368756 5368757 5368758 5368757 5368721 5368722 5368723 5368722 
5368709 5368709 5368709 5368709 5368709 5368741 5368742 5368741 5368740 5368737 5368738 5368739 5368738 5368743 5368744 5368743 5368742 10737418 10737418 999999 0 5368751 5368750 5368749 5368750 5368745 5368746 5368745 5368744 5368726 5368727 5368728 5368727 5368733 5368734 5368735 5368734 5368755 5368756 5368757 5368756 5368722 5368723 5368722 5368723 
5368709 5368709 5368709 5368709 5368709 5368740 5368741 5368740 5368739 5368736 5368737 5368738 5368737 5368742 5368743 5368742 5368741 0 10737418 10737418 999999 5368750 5368749 5368748 5368749 5368744 5368745 5368744 5368743 5368725 5368726 5368727 5368726 5368732 5368733 5368734 5368733 5368754 5368755 5368756 5368755 5368721 5368722 5368721 5368722 
5368709 5368709 5368709 5368709 5368709 5368726 5368725 5368726 5368727 5368760 5368759 5368758 5368759 5368738 5368739 5368738 5368737 5368751 5368750 5368749 5368750 999999 0 10737418 10737418 5368746 5368747 5368746 5368745 5368745 5368744 5368743 5368744 5368738 5368737 5368738 5368737 5368728 5368729 5368728 5368727 5368751 5368752 5368751 5368750 
5368709 5368709 5368709 5368709 5368709 5368727 5368726 5368727 5368728 5368761 5368760 5368759 5368760 5368739 5368740 5368739 5368738 5368752 5368751 5368750 5368751 10737418 999999 0 10737418 5368747 5368748 5368747 5368746 5368746 5368745 5368744 5368745 5368739 5368738 5368739 5368738 5368729 5368730 5368729 5368728 5368752 5368753 5368752 5368751 
5368709 5368709 5368709 5368709 5368709 5368726 5368725 5368726 5368727 5368760 5368759 5368758 5368759 5368738 5368739 5368738 5368737 5368751 5368750 5368749 5368750 10737418 10737418 999999 0 5368746 5368747 5368746 5368745 5368747 5368746 5368745 5368746 5368740 5368739 5368740 5368739 5368728 5368729 5368728 5368727 5368753 5368754 5368753 5368752 
5368709 5368709 5368709 5368709 5368709 5368725 5368724 5368725 5368726 5368759 5368758 5368757 5368758 5368737 5368738 5368737 5368736 5368750 5368749 5368748 5368749 0 10737418 10737418 999999 5368745 5368746 5368745 5368744 5368746 5368745 5368744 5368745 5368739 5368738 5368739 5368738 5368727 5368728 5368727 5368726 5368752 5368753 5368752 5368751 
5368709 5368709 5368709 5368709 5368709 5368738 5368737 5368738 5368739 5368728 5368727 5368726 5368727 5368720 5368721 5368720 5368719 5368745 5368744 5368743 5368744 5368746 5368745 5368744 5368745 999999 0 10737418 10737418 5368745 5368744 5368743 5368744 5368742 5368743 5368744 5368743 5368736 5368737 5368738 5368737 5368751 5368750 5368749 5368750 
5368709 5368709 5368709 5368709 5368709 5368739 5368738 5368739 5368740 5368729 5368728 5368727 5368728 5368721 5368722 5368721 5368720 5368746 5368745 5368744 5368745 5368747 5368746 5368745 5368746 10737418 999999 0 10737418 5368746 5368745 5368744 5368745 5368743 5368744 5368745 5368744 5368737 5368738 5368739 5368738 5368752 5368751 5368750 5368751 
5368709 5368709 5368709 5368709 5368709 5368740 5368739 5368740 5368741 5368730 5368729 5368728 5368729 5368722 5368723 5368722 5368721 5368747 5368746 5368745 5368746 5368748 5368747 5368746 5368747 10737418 10737418 999999 0 5368747 5368746 5368745 5368746 5368744 5368745 5368746 5368745 5368738 5368739 5368740 5368739 5368753 5368752 5368751 5368752 
5368709 5368709 5368709 5368709 5368709 5368739 5368738 5368739 5368740 5368729 5368728 5368727 5368728 5368721 5368722 5368721 5368720 5368746 5368745 5368744 5368745 5368747 5368746 5368745 5368746 0 10737418 10737418 999999 5368746 5368745 5368744 5368745 5368743 5368744 5368745 5368744 5368737 5368738 5368739 5368738 5368752 5368751 5368750 5368751 
5368709 5368709 5368709 5368709 5368709 5368731 5368732 5368731 5368730 5368747 5368748 5368747 5368748 5368743 5368744 5368743 5368742 5368728 5368727 5368726 5368727 5368745 5368746 5368745 5368744 5368745 5368746 5368745 5368744 999999 0 10737418 10737418 5368717 5368718 5368719 5368718 5368753 5368754 5368755 5368754 5368718 5368719 5368718 5368717 
5368709 5368709 5368709 5368709 5368709 5368732 5368733 5368732 5368731 5368746 5368747 5368746 5368747 5368744 5368745 5368744 5368743 5368727 5368726 5368725 5368726 5368746 5368747 5368746 5368745 5368746 5368747 5368746 5368745 10737418 999999 0 10737418 5368718 5368719 5368720 5368719 5368754 5368755 5368756 5368755 5368717 5368718 5368717 5368716 
5368709 5368709 5368709 5368709 5368709 5368731 5368732 5368731 5368730 5368747 5368748 5368747 5368748 5368743 5368744 5368743 5368742 5368728 5368727 5368726 5368727 5368745 5368746 5368745 5368744 5368745 5368746 5368745 5368744 10737418 10737418 999999 0 5368719 5368718 5368719 5368720 5368753 5368754 5368755 5368754 5368718 5368719 5368718 5368717 
5368709 5368709 5368709 5368709 5368709 5368730 5368731 5368730 5368729 5368748 5368747 5368746 5368747 5368742 5368743 5368742 5368741 5368729 5368728 5368727 5368728 5368744 5368745 5368744 5368743 5368744 5368745 5368744 5368743 0 10737418 10737418 999999 5368718 5368717 5368718 5368719 5368752 5368753 5368754 5368753 5368719 5368720 5368719 5368718 
5368709 5368709 5368709 5368709 5368709 5368726 5368727 5368726 5368725 5368752 5368751 5368750 5368751 5368740 5368741 5368740 5368739 5368735 5368734 5368733 5368734 5368738 5368739 5368738 5368737 5368744 5368745 5368744 5368743 5368719 5368720 5368719 5368718 999999 0 10737418 10737418 5368748 5368749 5368750 5368749 5368725 5368726 5368725 5368724 
5368709 5368709 5368709 5368709 5368709 5368725 5368726 5368725 5368724 5368751 5368750 5368749 5368750 5368739 5368740 5368739 5368738 5368734 5368733 5368732 5368733 5368739 5368740 5368739 5368738 5368743 5368744 5368743 5368742 5368718 5368719 5368718 5368717 10737418 999999 0 10737418 5368747 5368748 5368749 5368748 5368724 5368725 5368724 5368723 
5368709 5368709 5368709 5368709 5368709 5368724 5368725 5368724 5368723 5368752 5368751 5368750 5368751 5368738 5368739 5368738 5368737 5368735 5368734 5368733 5368734 5368738 5368739 5368738 5368737 5368744 5368745 5368744 5368743 5368719 5368718 5368717 5368718 10737418 10737418 999999 0 5368746 5368747 5368748 5368747 5368725 5368726 5368725 5368724 
5368709 5368709 5368709 5368709 5368709 5368725 5368726 5368725 5368724 5368753 5368752 5368751 5368752 5368739 5368740 5368739 5368738 5368736 5368735 5368734 5368735 5368739 5368740 5368739 5368738 5368745 5368746 5368745 5368744 5368720 5368719 5368718 5368719 0 10737418 10737418 999999 5368747 5368748 5368749 5368748 5368726 5368727 5368726 5368725 
5368709 5368709 5368709 5368709 5368709 5368734 5368733 5368734 5368735 5368754 5368753 5368752 5368753 5368734 5368733 5368732 5368733 5368757 5368756 5368755 5368756 5368728 5368727 5368726 5368727 5368738 5368739 5368738 5368737 5368755 5368754 5368753 5368754 5368748 5368747 5368748 5368749 999999 0 10737418 10737418 5368761 5368762 5368761 5368760 
5368709 5368709 5368709 5368709 5368709 5368733 5368732 5368733 5368734 5368753 5368752 5368751 5368752 5368733 5368732 5368731 5368732 5368756 5368755 5368754 5368755 5368729 5368728 5368727 5368728 5368737 5368738 5368737 5368736 5368754 5368753 5368752 5368753 5368747 5368746 5368747 5368748 10737418 999999 0 10737418 5368760 5368761 5368760 5368759 
5368709 5368709 5368709 5368709 5368709 5368734 5368733 5368734 5368735 5368754 5368753 5368752 5368753 5368734 5368733 5368732 5368733 5368757 5368756 5368755 5368756 5368730 5368729 5368728 5368729 5368738 5368739 5368738 5368737 5368755 5368754 5368753 5368754 5368748 5368747 5368748 5368749 10737418 10737418 999999 0 5368761 5368762 5368761 5368760 
5368709 5368709 5368709 5368709 5368709 5368735 5368734 5368735 5368736 5368755 5368754 5368753 5368754 5368735 5368734 5368733 5368734 5368758 5368757 5368756 5368757 5368729 5368728 5368727 5368728 5368739 5368740 5368739 5368738 5368756 5368755 5368754 5368755 5368749 5368748 5368749 5368750 0 10737418 10737418 999999 5368762 5368763 5368762 5368761 
5368709 5368709 5368709 5368709 5368709 5368737 5368738 5368737 5368736 5368745 5368746 5368747 5368746 5368749 5368750 5368749 5368748 5368722 5368723 5368722 5368721 5368751 5368752 5368751 5368750 5368751 5368752 5368751 5368750 5368716 5368717 5368718 5368717 5368723 5368724 5368725 5368724 5368759 5368760 5368761 5368760 999999 0 10737418 10737418 
5368709 5368709 5368709 5368709 5368709 5368738 5368739 5368738 5368737 5368746 5368747 5368748 5368747 5368750 5368751 5368750 5368749 5368721 5368722 5368721 5368720 5368752 5368753 5368752 5368751 5368752 5368753 5368752 5368751 5368717 5368718 5368719 5368718 5368724 5368725 5368726 5368725 5368760 5368761 5368762 5368761 10737418 999999 0 10737418 
5368709 5368709 5368709 5368709 5368709 5368739 5368740 5368739 5368738 5368745 5368746 5368747 5368746 5368749 5368750 5368749 5368748 5368722 5368723 5368722 5368721 5368753 5368754 5368753 5368752 5368751 5368752 5368751 5368750 5368718 5368719 5368720 5368719 5368725 5368726 5368727 5368726 5368761 5368762 5368763 5368762 10737418 10737418 999999 0 
5368709 5368709 5368709 5368709 5368709 5368738 5368739 5368738 5368737 5368744 5368745 5368746 5368745 5368748 5368749 5368748 5368747 5368723 5368722 5368721 5368722 5368752 5368753 5368752 5368751 5368750 5368751 5368750 5368749 5368717 5368718 5368719 5368718 5368724 5368725 5368726 5368725 5368760 5368761 5368762 5368761 0 10737418 10737418 999999 
EOF
