RobustCbss/GLKH-1.1/TMP/mtspf.pid10622.tour
NAME : mtspf.pid10622.gtsp.80530761.tour
COMMENT : Length = 80530761
COMMENT : Found by LKH [Keld Helsgaun] Mon Mar  3 08:13:59 2025
TYPE : TOUR
DIMENSION : 45
TOUR_SECTION
1
5
28
29
26
27
17
14
15
16
3
9
6
7
8
25
22
23
24
41
38
39
40
2
10
11
12
13
4
34
35
36
37
32
33
30
31
44
45
42
43
21
18
19
20
-1
EOF
